model.cnf
c model.txt
c
p cnf 66 224
1 2 0
3 2 0
-1 -3 -2 0
1 4 0
3 4 0
-1 -3 -4 0
-5 -4 0
6 7 0
8 7 0
-6 -8 -7 0
6 9 0
8 9 0
-6 -8 -9 0
-10 -9 0
11 -12 0
13 -14 0
12 15 0
16 15 0
-12 -16 -15 0
12 17 0
16 17 0
-12 -16 -17 0
-11 -17 0
14 18 0
19 18 0
-14 -19 -18 0
14 20 0
19 20 0
-14 -19 -20 0
-13 -20 0
21 -22 0
23 -24 0
25 -26 0
-21 22 0
-23 24 0
-25 26 0
27 -28 0
29 -30 0
31 -32 0
-27 28 0
-29 30 0
-31 32 0
-33 -34 -35 3 0
-33 -34 35 -3 0
-33 34 -35 -3 0
-33 34 35 3 0
33 34 35 -3 0
33 34 -35 3 0
33 -34 35 3 0
33 -34 -35 -3 0
-33 0
-36 -37 -34 8 0
-36 -37 34 -8 0
-36 37 -34 -8 0
-36 37 34 8 0
36 37 34 -8 0
36 37 -34 8 0
36 -37 34 8 0
36 -37 -34 -8 0
-36 0
-38 -39 -40 16 0
-38 -39 40 -16 0
-38 39 -40 -16 0
-38 39 40 16 0
38 39 40 -16 0
38 39 -40 16 0
38 -39 40 16 0
38 -39 -40 -16 0
-38 0
-41 -42 -39 19 0
-41 -42 39 -19 0
-41 42 -39 -19 0
-41 42 39 19 0
41 42 39 -19 0
41 42 -39 19 0
41 -42 39 19 0
41 -42 -39 -19 0
-41 0
-35 0
-40 0
35 43 0
3 43 0
-35 -3 -43 0
-44 1 -43 0
-44 -1 43 0
44 -1 -43 0
44 1 43 0
-45 -24 -22 44 0
-45 -24 22 -44 0
-45 24 -22 -44 0
-45 24 22 44 0
45 24 22 -44 0
45 24 -22 44 0
45 -24 22 44 0
45 -24 -22 -44 0
-45 0
-46 1 22 0
-46 1 -43 0
-46 22 -43 0
46 -1 -22 0
46 -1 43 0
46 -22 43 0
-47 -5 -46 0
-47 5 46 0
47 5 -46 0
47 -5 46 0
-48 -23 -21 47 0
-48 -23 21 -47 0
-48 23 -21 -47 0
-48 23 21 47 0
48 23 21 -47 0
48 23 -21 47 0
48 -23 21 47 0
48 -23 -21 -47 0
-48 0
34 49 0
8 49 0
-34 -8 -49 0
-50 6 -49 0
-50 -6 49 0
50 -6 -49 0
50 6 49 0
-51 -26 -24 50 0
-51 -26 24 -50 0
-51 26 -24 -50 0
-51 26 24 50 0
51 26 24 -50 0
51 26 -24 50 0
51 -26 24 50 0
51 -26 -24 -50 0
-51 0
-52 6 24 0
-52 6 -49 0
-52 24 -49 0
52 -6 -24 0
52 -6 49 0
52 -24 49 0
-53 -10 -52 0
-53 10 52 0
53 10 -52 0
53 -10 52 0
-54 -25 -23 53 0
-54 -25 23 -53 0
-54 25 -23 -53 0
-54 25 23 53 0
54 25 23 -53 0
54 25 -23 53 0
54 -25 23 53 0
54 -25 -23 -53 0
-54 0
40 55 0
16 55 0
-40 -16 -55 0
-56 12 -55 0
-56 -12 55 0
56 -12 -55 0
56 12 55 0
-57 -30 -28 56 0
-57 -30 28 -56 0
-57 30 -28 -56 0
-57 30 28 56 0
57 30 28 -56 0
57 30 -28 56 0
57 -30 28 56 0
57 -30 -28 -56 0
-57 0
-58 12 28 0
-58 12 -55 0
-58 28 -55 0
58 -12 -28 0
58 -12 55 0
58 -28 55 0
-59 -11 -58 0
-59 11 58 0
59 11 -58 0
59 -11 58 0
-60 -29 -27 59 0
-60 -29 27 -59 0
-60 29 -27 -59 0
-60 29 27 59 0
60 29 27 -59 0
60 29 -27 59 0
60 -29 27 59 0
60 -29 -27 -59 0
-60 0
39 61 0
19 61 0
-39 -19 -61 0
-62 14 -61 0
-62 -14 61 0
62 -14 -61 0
62 14 61 0
-63 -32 -30 62 0
-63 -32 30 -62 0
-63 32 -30 -62 0
-63 32 30 62 0
63 32 30 -62 0
63 32 -30 62 0
63 -32 30 62 0
63 -32 -30 -62 0
-63 0
-64 14 30 0
-64 14 -61 0
-64 30 -61 0
64 -14 -30 0
64 -14 61 0
64 -30 61 0
-65 -13 -64 0
-65 13 64 0
65 13 -64 0
65 -13 64 0
-66 -31 -29 65 0
-66 -31 29 -65 0
-66 31 -29 -65 0
-66 31 29 65 0
66 31 29 -65 0
66 31 -29 65 0
66 -31 29 65 0
66 -31 -29 -65 0
-66 0
-22 0
-21 0
-28 0
-27 0
