model.txt
Or(k!25, k!54)
Or(k!24, k!54)
Or(Not(k!25), Not(k!24), Not(k!54))
Or(k!25, k!55)
Or(k!24, k!55)
Or(Not(k!25), Not(k!24), Not(k!55))
Or(Not(k!26), Not(k!55))
Or(k!28, k!56)
Or(k!27, k!56)
Or(Not(k!28), Not(k!27), Not(k!56))
Or(k!28, k!57)
Or(k!27, k!57)
Or(Not(k!28), Not(k!27), Not(k!57))
Or(Not(k!29), Not(k!57))
Or(k!32, Not(k!31))
Or(k!35, Not(k!34))
Or(k!31, k!58)
Or(k!30, k!58)
Or(Not(k!31), Not(k!30), Not(k!58))
Or(k!31, k!59)
Or(k!30, k!59)
Or(Not(k!31), Not(k!30), Not(k!59))
Or(Not(k!32), Not(k!59))
Or(k!34, k!60)
Or(k!33, k!60)
Or(Not(k!34), Not(k!33), Not(k!60))
Or(k!34, k!61)
Or(k!33, k!61)
Or(Not(k!34), Not(k!33), Not(k!61))
Or(Not(k!35), Not(k!61))
Or(k!38, Not(k!37))
Or(k!41, Not(k!40))
Or(k!44, Not(k!43))
Or(Not(k!38), k!37)
Or(Not(k!41), k!40)
Or(Not(k!44), k!43)
Or(k!47, Not(k!46))
Or(k!50, Not(k!49))
Or(k!53, Not(k!52))
Or(Not(k!47), k!46)
Or(Not(k!50), k!49)
Or(Not(k!53), k!52)
Or(Not(k!62), Not(k!39), Not(k!36), k!24)
Or(Not(k!62), Not(k!39), k!36, Not(k!24))
Or(Not(k!62), k!39, Not(k!36), Not(k!24))
Or(Not(k!62), k!39, k!36, k!24)
Or(k!62, k!39, k!36, Not(k!24))
Or(k!62, k!39, Not(k!36), k!24)
Or(k!62, Not(k!39), k!36, k!24)
Or(k!62, Not(k!39), Not(k!36), Not(k!24))
Not(k!62)
Or(Not(k!63), Not(k!42), Not(k!39), k!27)
Or(Not(k!63), Not(k!42), k!39, Not(k!27))
Or(Not(k!63), k!42, Not(k!39), Not(k!27))
Or(Not(k!63), k!42, k!39, k!27)
Or(k!63, k!42, k!39, Not(k!27))
Or(k!63, k!42, Not(k!39), k!27)
Or(k!63, Not(k!42), k!39, k!27)
Or(k!63, Not(k!42), Not(k!39), Not(k!27))
Not(k!63)
Or(Not(k!64), Not(k!48), Not(k!45), k!30)
Or(Not(k!64), Not(k!48), k!45, Not(k!30))
Or(Not(k!64), k!48, Not(k!45), Not(k!30))
Or(Not(k!64), k!48, k!45, k!30)
Or(k!64, k!48, k!45, Not(k!30))
Or(k!64, k!48, Not(k!45), k!30)
Or(k!64, Not(k!48), k!45, k!30)
Or(k!64, Not(k!48), Not(k!45), Not(k!30))
Not(k!64)
Or(Not(k!65), Not(k!51), Not(k!48), k!33)
Or(Not(k!65), Not(k!51), k!48, Not(k!33))
Or(Not(k!65), k!51, Not(k!48), Not(k!33))
Or(Not(k!65), k!51, k!48, k!33)
Or(k!65, k!51, k!48, Not(k!33))
Or(k!65, k!51, Not(k!48), k!33)
Or(k!65, Not(k!51), k!48, k!33)
Or(k!65, Not(k!51), Not(k!48), Not(k!33))
Not(k!65)
Not(k!36)
Not(k!45)
Or(k!36, k!66)
Or(k!24, k!66)
Or(Not(k!36), Not(k!24), Not(k!66))
Or(Not(k!67), k!25, Not(k!66))
Or(Not(k!67), Not(k!25), k!66)
Or(k!67, Not(k!25), Not(k!66))
Or(k!67, k!25, k!66)
Or(Not(k!68), Not(k!40), Not(k!37), k!67)
Or(Not(k!68), Not(k!40), k!37, Not(k!67))
Or(Not(k!68), k!40, Not(k!37), Not(k!67))
Or(Not(k!68), k!40, k!37, k!67)
Or(k!68, k!40, k!37, Not(k!67))
Or(k!68, k!40, Not(k!37), k!67)
Or(k!68, Not(k!40), k!37, k!67)
Or(k!68, Not(k!40), Not(k!37), Not(k!67))
Not(k!68)
Or(Not(k!69), k!25, k!37)
Or(Not(k!69), k!25, Not(k!66))
Or(Not(k!69), k!37, Not(k!66))
Or(k!69, Not(k!25), Not(k!37))
Or(k!69, Not(k!25), k!66)
Or(k!69, Not(k!37), k!66)
Or(Not(k!70), Not(k!26), Not(k!69))
Or(Not(k!70), k!26, k!69)
Or(k!70, k!26, Not(k!69))
Or(k!70, Not(k!26), k!69)
Or(Not(k!71), Not(k!41), Not(k!38), k!70)
Or(Not(k!71), Not(k!41), k!38, Not(k!70))
Or(Not(k!71), k!41, Not(k!38), Not(k!70))
Or(Not(k!71), k!41, k!38, k!70)
Or(k!71, k!41, k!38, Not(k!70))
Or(k!71, k!41, Not(k!38), k!70)
Or(k!71, Not(k!41), k!38, k!70)
Or(k!71, Not(k!41), Not(k!38), Not(k!70))
Not(k!71)
Or(k!39, k!72)
Or(k!27, k!72)
Or(Not(k!39), Not(k!27), Not(k!72))
Or(Not(k!73), k!28, Not(k!72))
Or(Not(k!73), Not(k!28), k!72)
Or(k!73, Not(k!28), Not(k!72))
Or(k!73, k!28, k!72)
Or(Not(k!74), Not(k!43), Not(k!40), k!73)
Or(Not(k!74), Not(k!43), k!40, Not(k!73))
Or(Not(k!74), k!43, Not(k!40), Not(k!73))
Or(Not(k!74), k!43, k!40, k!73)
Or(k!74, k!43, k!40, Not(k!73))
Or(k!74, k!43, Not(k!40), k!73)
Or(k!74, Not(k!43), k!40, k!73)
Or(k!74, Not(k!43), Not(k!40), Not(k!73))
Not(k!74)
Or(Not(k!75), k!28, k!40)
Or(Not(k!75), k!28, Not(k!72))
Or(Not(k!75), k!40, Not(k!72))
Or(k!75, Not(k!28), Not(k!40))
Or(k!75, Not(k!28), k!72)
Or(k!75, Not(k!40), k!72)
Or(Not(k!76), Not(k!29), Not(k!75))
Or(Not(k!76), k!29, k!75)
Or(k!76, k!29, Not(k!75))
Or(k!76, Not(k!29), k!75)
Or(Not(k!77), Not(k!44), Not(k!41), k!76)
Or(Not(k!77), Not(k!44), k!41, Not(k!76))
Or(Not(k!77), k!44, Not(k!41), Not(k!76))
Or(Not(k!77), k!44, k!41, k!76)
Or(k!77, k!44, k!41, Not(k!76))
Or(k!77, k!44, Not(k!41), k!76)
Or(k!77, Not(k!44), k!41, k!76)
Or(k!77, Not(k!44), Not(k!41), Not(k!76))
Not(k!77)
Or(k!45, k!78)
Or(k!30, k!78)
Or(Not(k!45), Not(k!30), Not(k!78))
Or(Not(k!79), k!31, Not(k!78))
Or(Not(k!79), Not(k!31), k!78)
Or(k!79, Not(k!31), Not(k!78))
Or(k!79, k!31, k!78)
Or(Not(k!80), Not(k!49), Not(k!46), k!79)
Or(Not(k!80), Not(k!49), k!46, Not(k!79))
Or(Not(k!80), k!49, Not(k!46), Not(k!79))
Or(Not(k!80), k!49, k!46, k!79)
Or(k!80, k!49, k!46, Not(k!79))
Or(k!80, k!49, Not(k!46), k!79)
Or(k!80, Not(k!49), k!46, k!79)
Or(k!80, Not(k!49), Not(k!46), Not(k!79))
Not(k!80)
Or(Not(k!81), k!31, k!46)
Or(Not(k!81), k!31, Not(k!78))
Or(Not(k!81), k!46, Not(k!78))
Or(k!81, Not(k!31), Not(k!46))
Or(k!81, Not(k!31), k!78)
Or(k!81, Not(k!46), k!78)
Or(Not(k!82), Not(k!32), Not(k!81))
Or(Not(k!82), k!32, k!81)
Or(k!82, k!32, Not(k!81))
Or(k!82, Not(k!32), k!81)
Or(Not(k!83), Not(k!50), Not(k!47), k!82)
Or(Not(k!83), Not(k!50), k!47, Not(k!82))
Or(Not(k!83), k!50, Not(k!47), Not(k!82))
Or(Not(k!83), k!50, k!47, k!82)
Or(k!83, k!50, k!47, Not(k!82))
Or(k!83, k!50, Not(k!47), k!82)
Or(k!83, Not(k!50), k!47, k!82)
Or(k!83, Not(k!50), Not(k!47), Not(k!82))
Not(k!83)
Or(k!48, k!84)
Or(k!33, k!84)
Or(Not(k!48), Not(k!33), Not(k!84))
Or(Not(k!85), k!34, Not(k!84))
Or(Not(k!85), Not(k!34), k!84)
Or(k!85, Not(k!34), Not(k!84))
Or(k!85, k!34, k!84)
Or(Not(k!86), Not(k!52), Not(k!49), k!85)
Or(Not(k!86), Not(k!52), k!49, Not(k!85))
Or(Not(k!86), k!52, Not(k!49), Not(k!85))
Or(Not(k!86), k!52, k!49, k!85)
Or(k!86, k!52, k!49, Not(k!85))
Or(k!86, k!52, Not(k!49), k!85)
Or(k!86, Not(k!52), k!49, k!85)
Or(k!86, Not(k!52), Not(k!49), Not(k!85))
Not(k!86)
Or(Not(k!87), k!34, k!49)
Or(Not(k!87), k!34, Not(k!84))
Or(Not(k!87), k!49, Not(k!84))
Or(k!87, Not(k!34), Not(k!49))
Or(k!87, Not(k!34), k!84)
Or(k!87, Not(k!49), k!84)
Or(Not(k!88), Not(k!35), Not(k!87))
Or(Not(k!88), k!35, k!87)
Or(k!88, k!35, Not(k!87))
Or(k!88, Not(k!35), k!87)
Or(Not(k!89), Not(k!53), Not(k!50), k!88)
Or(Not(k!89), Not(k!53), k!50, Not(k!88))
Or(Not(k!89), k!53, Not(k!50), Not(k!88))
Or(Not(k!89), k!53, k!50, k!88)
Or(k!89, k!53, k!50, Not(k!88))
Or(k!89, k!53, Not(k!50), k!88)
Or(k!89, Not(k!53), k!50, k!88)
Or(k!89, Not(k!53), Not(k!50), Not(k!88))
Not(k!89)
Not(k!37)
Not(k!38)
Not(k!46)
Not(k!47)
